
n_res = 4;
rcap = [33, 33, 247, 248];
rtype = [1, 1, 2, 2];
n_tasks = 50;
modes =  [{1, 2, 3}, {4, 5, 6}, {7, 8, 9}, {10, 11, 12}, {13, 14, 15}, {16, 17, 18}, {19, 20, 21}, {22, 23, 24}, {25, 26, 27}, {28, 29, 30}, {31, 32, 33}, {34, 35, 36}, {37, 38, 39}, {40, 41, 42}, {43, 44, 45}, {46, 47, 48}, {49, 50, 51}, {52, 53, 54}, {55, 56, 57}, {58, 59, 60}, {61, 62, 63}, {64, 65, 66}, {67, 68, 69}, {70, 71, 72}, {73, 74, 75}, {76, 77, 78}, {79, 80, 81}, {82, 83, 84}, {85, 86, 87}, {88, 89, 90}, {91, 92, 93}, {94, 95, 96}, {97, 98, 99}, {100, 101, 102}, {103, 104, 105}, {106, 107, 108}, {109, 110, 111}, {112, 113, 114}, {115, 116, 117}, {118, 119, 120}, {121, 122, 123}, {124, 125, 126}, {127, 128, 129}, {130, 131, 132}, {133, 134, 135}, {136, 137, 138}, {139, 140, 141}, {142, 143, 144}, {145, 146, 147}, {148, 149, 150}];
succ =  [{50, 49, 47, 24, 22, 20, 19, 17, 16, 13}, {49, 47, 46, 41, 28, 27, 26, 25, 24, 20, 17, 12}, {50, 47, 46, 43, 42, 40, 37, 26, 25, 24, 21, 19, 18}, {48, 45, 43, 42, 41, 40, 31, 28, 25, 24, 22}, {49, 47, 46, 44, 41, 38, 28, 27, 24, 20}, {43, 36, 26, 22, 20, 13}, {49, 48, 43, 42, 40, 38, 37, 36, 35, 32, 31, 29, 24}, {48, 47, 43, 33, 27, 19, 18}, {46, 43, 41, 40, 39, 37, 36, 35, 34, 33, 31, 25}, {44, 38, 34, 30, 24, 19}, {45, 43, 40, 39, 37, 36, 35, 33, 31, 27}, {48, 45, 44, 43, 42, 40, 37, 36, 34, 32, 31}, {42, 41, 40, 39, 35, 34, 33, 31, 25}, {43, 42, 41, 40, 38, 37, 35, 34, 32, 31}, {50, 44, 42, 41, 37, 36, 35, 33, 31}, {45, 38, 37, 34, 33, 26}, {44, 43, 34, 32, 31, 30}, {45, 39, 38, 36, 35, 31}, {41, 36, 35, 32, 31}, {42, 37, 35, 32, 31}, {41, 39, 34, 33, 31}, {46, 37, 34, 33}, {42, 35, 33}, {39, 33}, {38, 32}, {32, 31}, {34, 32}, {36, 32}, {44, 33}, {40}, {}, {}, {}, {}, {}, {}, {}, {}, {}, {}, {}, {}, {}, {}, {}, {}, {}, {}, {}, {}];
n_opt = 150;
dur = [2, 3, 4, 1, 7, 10, 2, 3, 10, 1, 2, 9, 1, 3, 4, 1, 7, 10, 3, 5, 9, 2, 3, 9, 3, 4, 5, 3, 4, 9, 4, 5, 8, 3, 5, 10, 3, 5, 9, 1, 3, 5, 4, 7, 8, 4, 5, 10, 4, 5, 6, 4, 5, 8, 5, 8, 10, 3, 4, 5, 1, 9, 10, 5, 6, 8, 4, 5, 9, 5, 7, 8, 1, 3, 4, 8, 9, 10, 1, 5, 6, 1, 9, 10, 2, 9, 10, 5, 6, 9, 1, 7, 9, 1, 4, 5, 3, 6, 7, 3, 6, 10, 3, 9, 10, 1, 3, 9, 4, 9, 10, 2, 8, 10, 4, 9, 10, 1, 2, 10, 8, 9, 10, 1, 4, 7, 3, 7, 8, 4, 5, 7, 1, 6, 10, 4, 6, 9, 4, 5, 7, 5, 7, 10, 1, 2, 9, 3, 4, 8];
rreq = [|8, 5, 4, 6, 6, 6, 8, 7, 7, 8, 5, 2, 5, 4, 3, 8, 8, 5, 10, 9, 9, 8, 6, 5, 8, 6, 4, 6, 6, 6, 9, 9, 9, 2, 1, 1, 4, 3, 3, 10, 9, 9, 5, 4, 3, 4, 4, 4, 6, 5, 2, 10, 9, 9, 6, 5, 4, 6, 4, 4, 10, 9, 9, 2, 1, 1, 6, 3, 3, 5, 4, 3, 8, 7, 6, 6, 6, 6, 10, 8, 4, 5, 5, 5, 5, 5, 3, 6, 6, 6, 7, 5, 5, 7, 5, 4, 8, 6, 1, 6, 3, 2, 9, 7, 7, 5, 5, 5, 10, 9, 8, 8, 6, 2, 3, 3, 3, 5, 3, 3, 8, 6, 5, 10, 10, 10, 9, 5, 4, 8, 6, 6, 8, 7, 7, 4, 3, 2, 5, 2, 2, 1, 1, 1, 9, 9, 9, 8, 4, 3
 |8, 5, 5, 5, 5, 3, 5, 2, 1, 10, 8, 6, 7, 3, 2, 6, 6, 6, 7, 5, 2, 9, 8, 5, 9, 9, 8, 8, 6, 4, 8, 5, 3, 4, 3, 2, 4, 4, 4, 10, 9, 8, 9, 7, 6, 5, 5, 3, 3, 2, 1, 6, 4, 3, 8, 6, 2, 3, 2, 1, 8, 8, 7, 4, 3, 3, 3, 3, 1, 9, 6, 1, 10, 7, 6, 6, 3, 1, 4, 4, 3, 9, 8, 6, 6, 5, 5, 10, 10, 10, 9, 8, 8, 1, 1, 1, 7, 6, 5, 1, 1, 1, 1, 1, 1, 7, 6, 6, 6, 3, 1, 7, 4, 4, 6, 5, 4, 5, 4, 4, 4, 2, 2, 8, 8, 8, 5, 5, 4, 7, 4, 4, 4, 2, 1, 7, 7, 7, 7, 7, 7, 5, 5, 5, 5, 5, 1, 8, 7, 6
 |2, 2, 2, 10, 8, 8, 3, 3, 3, 4, 3, 2, 7, 7, 5, 5, 5, 5, 10, 9, 8, 6, 4, 3, 6, 3, 1, 8, 6, 6, 9, 8, 8, 6, 5, 4, 9, 9, 9, 8, 7, 6, 2, 1, 1, 2, 2, 2, 6, 6, 6, 1, 1, 1, 8, 8, 8, 7, 6, 5, 1, 1, 1, 4, 4, 3, 9, 6, 2, 6, 6, 5, 3, 3, 1, 10, 8, 6, 3, 2, 1, 9, 9, 9, 4, 4, 3, 10, 6, 5, 6, 5, 3, 7, 7, 5, 8, 6, 5, 7, 5, 5, 7, 7, 7, 7, 6, 4, 9, 8, 6, 8, 4, 3, 7, 6, 6, 6, 5, 5, 9, 8, 4, 4, 3, 3, 8, 7, 7, 5, 5, 3, 9, 7, 6, 4, 3, 3, 8, 7, 5, 7, 7, 7, 4, 3, 3, 7, 6, 6
 |8, 6, 6, 8, 3, 3, 4, 3, 3, 9, 6, 4, 6, 2, 2, 5, 4, 5, 7, 6, 6, 8, 7, 6, 7, 5, 4, 4, 2, 1, 10, 9, 7, 8, 7, 6, 7, 7, 6, 9, 6, 5, 7, 5, 5, 10, 9, 10, 3, 2, 1, 4, 2, 1, 5, 5, 5, 5, 3, 3, 4, 3, 2, 2, 2, 2, 3, 1, 1, 10, 8, 8, 8, 7, 5, 7, 7, 5, 9, 7, 5, 4, 4, 4, 8, 6, 5, 4, 4, 3, 8, 5, 2, 9, 7, 3, 7, 3, 3, 5, 4, 4, 8, 7, 6, 8, 5, 5, 9, 9, 8, 9, 9, 9, 9, 7, 5, 6, 5, 2, 8, 8, 6, 8, 3, 2, 3, 3, 3, 10, 8, 8, 5, 4, 3, 8, 6, 4, 8, 6, 2, 5, 4, 2, 9, 6, 6, 6, 6, 5|];